NAME: Random_85_3
ELLAPSED_TIME_(ms): 440
TOUR_SIZE: 1884
TOUR_SECTION
0
73
10
48
24
43
45
11
15
6
33
29
84
16
51
63
39
56
14
52
66
55
28
78
54
75
60
18
37
2
19
70
21
9
46
12
13
50
74
31
57
53
20
1
35
67
34
62
71
30
3
61
58
38
22
25
7
5
17
83
82
72
4
8
27
80
79
65
42
69
76
40
41
64
23
77
47
68
36
81
59
49
26
44
32
0
EOF
